30
0   127   130
1   126   128
2   126   129
3   129   129
4   129   127
5   126   129
6   126   129
7   129   130
8   126   129
9   128   127
10   67   63
11   65   63
12   63   63
13   67   63
14   66   64
15   66   63
16   67   64
17   66   66
18   67   64
19   65   64
20   2   4
21   3   1
22   4   5
23   1   2
24   3   1
25   3   5
26   4   5
27   2   3
28   3   5
29   4   5
250
